p cnf 36 1502
-1 -2 -3 0
-1 -2 -4 0
-1 -2 -9 0
-1 -3 -2 0
-1 -3 -4 0
-1 -3 -9 0
-1 -4 -2 0
-1 -4 -3 0
-1 -4 -9 0
-1 -9 -2 0
-1 -9 -3 0
-1 -9 -4 0
-2 -1 -3 0
-2 -1 -4 0
-2 -1 -9 0
-2 -3 -1 0
-2 -3 -4 0
-2 -3 -9 0
-2 -4 -1 0
-2 -4 -3 0
-2 -4 -9 0
-2 -9 -1 0
-2 -9 -3 0
-2 -9 -4 0
-3 -1 -2 0
-3 -1 -4 0
-3 -1 -9 0
-3 -2 -1 0
-3 -2 -4 0
-3 -2 -9 0
-3 -4 -1 0
-3 -4 -2 0
-3 -4 -9 0
-3 -9 -1 0
-3 -9 -2 0
-3 -9 -4 0
-4 -1 -2 0
-4 -1 -3 0
-4 -1 -9 0
-4 -2 -1 0
-4 -2 -3 0
-4 -2 -9 0
-4 -3 -1 0
-4 -3 -2 0
-4 -3 -9 0
-4 -9 -1 0
-4 -9 -2 0
-4 -9 -3 0
-9 -1 -2 0
-9 -1 -3 0
-9 -1 -4 0
-9 -2 -1 0
-9 -2 -3 0
-9 -2 -4 0
-9 -3 -1 0
-9 -3 -2 0
-9 -3 -4 0
-9 -4 -1 0
-9 -4 -2 0
-9 -4 -3 0
2 3 4 9 0
1 3 4 9 0
1 2 4 9 0
1 2 3 9 0
1 2 3 4 0
-7 -13 -14 0
-7 -13 -8 0
-7 -13 -15 0
-7 -13 -21 0
-7 -13 -16 0
-7 -13 -17 0
-7 -13 -11 0
-7 -13 -10 0
-7 -14 -13 0
-7 -14 -8 0
-7 -14 -15 0
-7 -14 -21 0
-7 -14 -16 0
-7 -14 -17 0
-7 -14 -11 0
-7 -14 -10 0
-7 -8 -13 0
-7 -8 -14 0
-7 -8 -15 0
-7 -8 -21 0
-7 -8 -16 0
-7 -8 -17 0
-7 -8 -11 0
-7 -8 -10 0
-7 -15 -13 0
-7 -15 -14 0
-7 -15 -8 0
-7 -15 -21 0
-7 -15 -16 0
-7 -15 -17 0
-7 -15 -11 0
-7 -15 -10 0
-7 -21 -13 0
-7 -21 -14 0
-7 -21 -8 0
-7 -21 -15 0
-7 -21 -16 0
-7 -21 -17 0
-7 -21 -11 0
-7 -21 -10 0
-7 -16 -13 0
-7 -16 -14 0
-7 -16 -8 0
-7 -16 -15 0
-7 -16 -21 0
-7 -16 -17 0
-7 -16 -11 0
-7 -16 -10 0
-7 -17 -13 0
-7 -17 -14 0
-7 -17 -8 0
-7 -17 -15 0
-7 -17 -21 0
-7 -17 -16 0
-7 -17 -11 0
-7 -17 -10 0
-7 -11 -13 0
-7 -11 -14 0
-7 -11 -8 0
-7 -11 -15 0
-7 -11 -21 0
-7 -11 -16 0
-7 -11 -17 0
-7 -11 -10 0
-7 -10 -13 0
-7 -10 -14 0
-7 -10 -8 0
-7 -10 -15 0
-7 -10 -21 0
-7 -10 -16 0
-7 -10 -17 0
-7 -10 -11 0
-13 -7 -14 0
-13 -7 -8 0
-13 -7 -15 0
-13 -7 -21 0
-13 -7 -16 0
-13 -7 -17 0
-13 -7 -11 0
-13 -7 -10 0
-13 -14 -7 0
-13 -14 -8 0
-13 -14 -15 0
-13 -14 -21 0
-13 -14 -16 0
-13 -14 -17 0
-13 -14 -11 0
-13 -14 -10 0
-13 -8 -7 0
-13 -8 -14 0
-13 -8 -15 0
-13 -8 -21 0
-13 -8 -16 0
-13 -8 -17 0
-13 -8 -11 0
-13 -8 -10 0
-13 -15 -7 0
-13 -15 -14 0
-13 -15 -8 0
-13 -15 -21 0
-13 -15 -16 0
-13 -15 -17 0
-13 -15 -11 0
-13 -15 -10 0
-13 -21 -7 0
-13 -21 -14 0
-13 -21 -8 0
-13 -21 -15 0
-13 -21 -16 0
-13 -21 -17 0
-13 -21 -11 0
-13 -21 -10 0
-13 -16 -7 0
-13 -16 -14 0
-13 -16 -8 0
-13 -16 -15 0
-13 -16 -21 0
-13 -16 -17 0
-13 -16 -11 0
-13 -16 -10 0
-13 -17 -7 0
-13 -17 -14 0
-13 -17 -8 0
-13 -17 -15 0
-13 -17 -21 0
-13 -17 -16 0
-13 -17 -11 0
-13 -17 -10 0
-13 -11 -7 0
-13 -11 -14 0
-13 -11 -8 0
-13 -11 -15 0
-13 -11 -21 0
-13 -11 -16 0
-13 -11 -17 0
-13 -11 -10 0
-13 -10 -7 0
-13 -10 -14 0
-13 -10 -8 0
-13 -10 -15 0
-13 -10 -21 0
-13 -10 -16 0
-13 -10 -17 0
-13 -10 -11 0
-14 -7 -13 0
-14 -7 -8 0
-14 -7 -15 0
-14 -7 -21 0
-14 -7 -16 0
-14 -7 -17 0
-14 -7 -11 0
-14 -7 -10 0
-14 -13 -7 0
-14 -13 -8 0
-14 -13 -15 0
-14 -13 -21 0
-14 -13 -16 0
-14 -13 -17 0
-14 -13 -11 0
-14 -13 -10 0
-14 -8 -7 0
-14 -8 -13 0
-14 -8 -15 0
-14 -8 -21 0
-14 -8 -16 0
-14 -8 -17 0
-14 -8 -11 0
-14 -8 -10 0
-14 -15 -7 0
-14 -15 -13 0
-14 -15 -8 0
-14 -15 -21 0
-14 -15 -16 0
-14 -15 -17 0
-14 -15 -11 0
-14 -15 -10 0
-14 -21 -7 0
-14 -21 -13 0
-14 -21 -8 0
-14 -21 -15 0
-14 -21 -16 0
-14 -21 -17 0
-14 -21 -11 0
-14 -21 -10 0
-14 -16 -7 0
-14 -16 -13 0
-14 -16 -8 0
-14 -16 -15 0
-14 -16 -21 0
-14 -16 -17 0
-14 -16 -11 0
-14 -16 -10 0
-14 -17 -7 0
-14 -17 -13 0
-14 -17 -8 0
-14 -17 -15 0
-14 -17 -21 0
-14 -17 -16 0
-14 -17 -11 0
-14 -17 -10 0
-14 -11 -7 0
-14 -11 -13 0
-14 -11 -8 0
-14 -11 -15 0
-14 -11 -21 0
-14 -11 -16 0
-14 -11 -17 0
-14 -11 -10 0
-14 -10 -7 0
-14 -10 -13 0
-14 -10 -8 0
-14 -10 -15 0
-14 -10 -21 0
-14 -10 -16 0
-14 -10 -17 0
-14 -10 -11 0
-8 -7 -13 0
-8 -7 -14 0
-8 -7 -15 0
-8 -7 -21 0
-8 -7 -16 0
-8 -7 -17 0
-8 -7 -11 0
-8 -7 -10 0
-8 -13 -7 0
-8 -13 -14 0
-8 -13 -15 0
-8 -13 -21 0
-8 -13 -16 0
-8 -13 -17 0
-8 -13 -11 0
-8 -13 -10 0
-8 -14 -7 0
-8 -14 -13 0
-8 -14 -15 0
-8 -14 -21 0
-8 -14 -16 0
-8 -14 -17 0
-8 -14 -11 0
-8 -14 -10 0
-8 -15 -7 0
-8 -15 -13 0
-8 -15 -14 0
-8 -15 -21 0
-8 -15 -16 0
-8 -15 -17 0
-8 -15 -11 0
-8 -15 -10 0
-8 -21 -7 0
-8 -21 -13 0
-8 -21 -14 0
-8 -21 -15 0
-8 -21 -16 0
-8 -21 -17 0
-8 -21 -11 0
-8 -21 -10 0
-8 -16 -7 0
-8 -16 -13 0
-8 -16 -14 0
-8 -16 -15 0
-8 -16 -21 0
-8 -16 -17 0
-8 -16 -11 0
-8 -16 -10 0
-8 -17 -7 0
-8 -17 -13 0
-8 -17 -14 0
-8 -17 -15 0
-8 -17 -21 0
-8 -17 -16 0
-8 -17 -11 0
-8 -17 -10 0
-8 -11 -7 0
-8 -11 -13 0
-8 -11 -14 0
-8 -11 -15 0
-8 -11 -21 0
-8 -11 -16 0
-8 -11 -17 0
-8 -11 -10 0
-8 -10 -7 0
-8 -10 -13 0
-8 -10 -14 0
-8 -10 -15 0
-8 -10 -21 0
-8 -10 -16 0
-8 -10 -17 0
-8 -10 -11 0
-15 -7 -13 0
-15 -7 -14 0
-15 -7 -8 0
-15 -7 -21 0
-15 -7 -16 0
-15 -7 -17 0
-15 -7 -11 0
-15 -7 -10 0
-15 -13 -7 0
-15 -13 -14 0
-15 -13 -8 0
-15 -13 -21 0
-15 -13 -16 0
-15 -13 -17 0
-15 -13 -11 0
-15 -13 -10 0
-15 -14 -7 0
-15 -14 -13 0
-15 -14 -8 0
-15 -14 -21 0
-15 -14 -16 0
-15 -14 -17 0
-15 -14 -11 0
-15 -14 -10 0
-15 -8 -7 0
-15 -8 -13 0
-15 -8 -14 0
-15 -8 -21 0
-15 -8 -16 0
-15 -8 -17 0
-15 -8 -11 0
-15 -8 -10 0
-15 -21 -7 0
-15 -21 -13 0
-15 -21 -14 0
-15 -21 -8 0
-15 -21 -16 0
-15 -21 -17 0
-15 -21 -11 0
-15 -21 -10 0
-15 -16 -7 0
-15 -16 -13 0
-15 -16 -14 0
-15 -16 -8 0
-15 -16 -21 0
-15 -16 -17 0
-15 -16 -11 0
-15 -16 -10 0
-15 -17 -7 0
-15 -17 -13 0
-15 -17 -14 0
-15 -17 -8 0
-15 -17 -21 0
-15 -17 -16 0
-15 -17 -11 0
-15 -17 -10 0
-15 -11 -7 0
-15 -11 -13 0
-15 -11 -14 0
-15 -11 -8 0
-15 -11 -21 0
-15 -11 -16 0
-15 -11 -17 0
-15 -11 -10 0
-15 -10 -7 0
-15 -10 -13 0
-15 -10 -14 0
-15 -10 -8 0
-15 -10 -21 0
-15 -10 -16 0
-15 -10 -17 0
-15 -10 -11 0
-21 -7 -13 0
-21 -7 -14 0
-21 -7 -8 0
-21 -7 -15 0
-21 -7 -16 0
-21 -7 -17 0
-21 -7 -11 0
-21 -7 -10 0
-21 -13 -7 0
-21 -13 -14 0
-21 -13 -8 0
-21 -13 -15 0
-21 -13 -16 0
-21 -13 -17 0
-21 -13 -11 0
-21 -13 -10 0
-21 -14 -7 0
-21 -14 -13 0
-21 -14 -8 0
-21 -14 -15 0
-21 -14 -16 0
-21 -14 -17 0
-21 -14 -11 0
-21 -14 -10 0
-21 -8 -7 0
-21 -8 -13 0
-21 -8 -14 0
-21 -8 -15 0
-21 -8 -16 0
-21 -8 -17 0
-21 -8 -11 0
-21 -8 -10 0
-21 -15 -7 0
-21 -15 -13 0
-21 -15 -14 0
-21 -15 -8 0
-21 -15 -16 0
-21 -15 -17 0
-21 -15 -11 0
-21 -15 -10 0
-21 -16 -7 0
-21 -16 -13 0
-21 -16 -14 0
-21 -16 -8 0
-21 -16 -15 0
-21 -16 -17 0
-21 -16 -11 0
-21 -16 -10 0
-21 -17 -7 0
-21 -17 -13 0
-21 -17 -14 0
-21 -17 -8 0
-21 -17 -15 0
-21 -17 -16 0
-21 -17 -11 0
-21 -17 -10 0
-21 -11 -7 0
-21 -11 -13 0
-21 -11 -14 0
-21 -11 -8 0
-21 -11 -15 0
-21 -11 -16 0
-21 -11 -17 0
-21 -11 -10 0
-21 -10 -7 0
-21 -10 -13 0
-21 -10 -14 0
-21 -10 -8 0
-21 -10 -15 0
-21 -10 -16 0
-21 -10 -17 0
-21 -10 -11 0
-16 -7 -13 0
-16 -7 -14 0
-16 -7 -8 0
-16 -7 -15 0
-16 -7 -21 0
-16 -7 -17 0
-16 -7 -11 0
-16 -7 -10 0
-16 -13 -7 0
-16 -13 -14 0
-16 -13 -8 0
-16 -13 -15 0
-16 -13 -21 0
-16 -13 -17 0
-16 -13 -11 0
-16 -13 -10 0
-16 -14 -7 0
-16 -14 -13 0
-16 -14 -8 0
-16 -14 -15 0
-16 -14 -21 0
-16 -14 -17 0
-16 -14 -11 0
-16 -14 -10 0
-16 -8 -7 0
-16 -8 -13 0
-16 -8 -14 0
-16 -8 -15 0
-16 -8 -21 0
-16 -8 -17 0
-16 -8 -11 0
-16 -8 -10 0
-16 -15 -7 0
-16 -15 -13 0
-16 -15 -14 0
-16 -15 -8 0
-16 -15 -21 0
-16 -15 -17 0
-16 -15 -11 0
-16 -15 -10 0
-16 -21 -7 0
-16 -21 -13 0
-16 -21 -14 0
-16 -21 -8 0
-16 -21 -15 0
-16 -21 -17 0
-16 -21 -11 0
-16 -21 -10 0
-16 -17 -7 0
-16 -17 -13 0
-16 -17 -14 0
-16 -17 -8 0
-16 -17 -15 0
-16 -17 -21 0
-16 -17 -11 0
-16 -17 -10 0
-16 -11 -7 0
-16 -11 -13 0
-16 -11 -14 0
-16 -11 -8 0
-16 -11 -15 0
-16 -11 -21 0
-16 -11 -17 0
-16 -11 -10 0
-16 -10 -7 0
-16 -10 -13 0
-16 -10 -14 0
-16 -10 -8 0
-16 -10 -15 0
-16 -10 -21 0
-16 -10 -17 0
-16 -10 -11 0
-17 -7 -13 0
-17 -7 -14 0
-17 -7 -8 0
-17 -7 -15 0
-17 -7 -21 0
-17 -7 -16 0
-17 -7 -11 0
-17 -7 -10 0
-17 -13 -7 0
-17 -13 -14 0
-17 -13 -8 0
-17 -13 -15 0
-17 -13 -21 0
-17 -13 -16 0
-17 -13 -11 0
-17 -13 -10 0
-17 -14 -7 0
-17 -14 -13 0
-17 -14 -8 0
-17 -14 -15 0
-17 -14 -21 0
-17 -14 -16 0
-17 -14 -11 0
-17 -14 -10 0
-17 -8 -7 0
-17 -8 -13 0
-17 -8 -14 0
-17 -8 -15 0
-17 -8 -21 0
-17 -8 -16 0
-17 -8 -11 0
-17 -8 -10 0
-17 -15 -7 0
-17 -15 -13 0
-17 -15 -14 0
-17 -15 -8 0
-17 -15 -21 0
-17 -15 -16 0
-17 -15 -11 0
-17 -15 -10 0
-17 -21 -7 0
-17 -21 -13 0
-17 -21 -14 0
-17 -21 -8 0
-17 -21 -15 0
-17 -21 -16 0
-17 -21 -11 0
-17 -21 -10 0
-17 -16 -7 0
-17 -16 -13 0
-17 -16 -14 0
-17 -16 -8 0
-17 -16 -15 0
-17 -16 -21 0
-17 -16 -11 0
-17 -16 -10 0
-17 -11 -7 0
-17 -11 -13 0
-17 -11 -14 0
-17 -11 -8 0
-17 -11 -15 0
-17 -11 -21 0
-17 -11 -16 0
-17 -11 -10 0
-17 -10 -7 0
-17 -10 -13 0
-17 -10 -14 0
-17 -10 -8 0
-17 -10 -15 0
-17 -10 -21 0
-17 -10 -16 0
-17 -10 -11 0
-11 -7 -13 0
-11 -7 -14 0
-11 -7 -8 0
-11 -7 -15 0
-11 -7 -21 0
-11 -7 -16 0
-11 -7 -17 0
-11 -7 -10 0
-11 -13 -7 0
-11 -13 -14 0
-11 -13 -8 0
-11 -13 -15 0
-11 -13 -21 0
-11 -13 -16 0
-11 -13 -17 0
-11 -13 -10 0
-11 -14 -7 0
-11 -14 -13 0
-11 -14 -8 0
-11 -14 -15 0
-11 -14 -21 0
-11 -14 -16 0
-11 -14 -17 0
-11 -14 -10 0
-11 -8 -7 0
-11 -8 -13 0
-11 -8 -14 0
-11 -8 -15 0
-11 -8 -21 0
-11 -8 -16 0
-11 -8 -17 0
-11 -8 -10 0
-11 -15 -7 0
-11 -15 -13 0
-11 -15 -14 0
-11 -15 -8 0
-11 -15 -21 0
-11 -15 -16 0
-11 -15 -17 0
-11 -15 -10 0
-11 -21 -7 0
-11 -21 -13 0
-11 -21 -14 0
-11 -21 -8 0
-11 -21 -15 0
-11 -21 -16 0
-11 -21 -17 0
-11 -21 -10 0
-11 -16 -7 0
-11 -16 -13 0
-11 -16 -14 0
-11 -16 -8 0
-11 -16 -15 0
-11 -16 -21 0
-11 -16 -17 0
-11 -16 -10 0
-11 -17 -7 0
-11 -17 -13 0
-11 -17 -14 0
-11 -17 -8 0
-11 -17 -15 0
-11 -17 -21 0
-11 -17 -16 0
-11 -17 -10 0
-11 -10 -7 0
-11 -10 -13 0
-11 -10 -14 0
-11 -10 -8 0
-11 -10 -15 0
-11 -10 -21 0
-11 -10 -16 0
-11 -10 -17 0
-10 -7 -13 0
-10 -7 -14 0
-10 -7 -8 0
-10 -7 -15 0
-10 -7 -21 0
-10 -7 -16 0
-10 -7 -17 0
-10 -7 -11 0
-10 -13 -7 0
-10 -13 -14 0
-10 -13 -8 0
-10 -13 -15 0
-10 -13 -21 0
-10 -13 -16 0
-10 -13 -17 0
-10 -13 -11 0
-10 -14 -7 0
-10 -14 -13 0
-10 -14 -8 0
-10 -14 -15 0
-10 -14 -21 0
-10 -14 -16 0
-10 -14 -17 0
-10 -14 -11 0
-10 -8 -7 0
-10 -8 -13 0
-10 -8 -14 0
-10 -8 -15 0
-10 -8 -21 0
-10 -8 -16 0
-10 -8 -17 0
-10 -8 -11 0
-10 -15 -7 0
-10 -15 -13 0
-10 -15 -14 0
-10 -15 -8 0
-10 -15 -21 0
-10 -15 -16 0
-10 -15 -17 0
-10 -15 -11 0
-10 -21 -7 0
-10 -21 -13 0
-10 -21 -14 0
-10 -21 -8 0
-10 -21 -15 0
-10 -21 -16 0
-10 -21 -17 0
-10 -21 -11 0
-10 -16 -7 0
-10 -16 -13 0
-10 -16 -14 0
-10 -16 -8 0
-10 -16 -15 0
-10 -16 -21 0
-10 -16 -17 0
-10 -16 -11 0
-10 -17 -7 0
-10 -17 -13 0
-10 -17 -14 0
-10 -17 -8 0
-10 -17 -15 0
-10 -17 -21 0
-10 -17 -16 0
-10 -17 -11 0
-10 -11 -7 0
-10 -11 -13 0
-10 -11 -14 0
-10 -11 -8 0
-10 -11 -15 0
-10 -11 -21 0
-10 -11 -16 0
-10 -11 -17 0
13 14 8 15 21 16 17 11 10 0
7 14 8 15 21 16 17 11 10 0
7 13 8 15 21 16 17 11 10 0
7 13 14 15 21 16 17 11 10 0
7 13 14 8 21 16 17 11 10 0
7 13 14 8 15 16 17 11 10 0
7 13 14 8 15 21 17 11 10 0
7 13 14 8 15 21 16 11 10 0
7 13 14 8 15 21 16 17 10 0
7 13 14 8 15 21 16 17 11 0
-5 -6 -12 0
-5 -6 -18 0
-5 -6 -24 0
-5 -6 -23 0
-5 -6 -22 0
-5 -12 -6 0
-5 -12 -18 0
-5 -12 -24 0
-5 -12 -23 0
-5 -12 -22 0
-5 -18 -6 0
-5 -18 -12 0
-5 -18 -24 0
-5 -18 -23 0
-5 -18 -22 0
-5 -24 -6 0
-5 -24 -12 0
-5 -24 -18 0
-5 -24 -23 0
-5 -24 -22 0
-5 -23 -6 0
-5 -23 -12 0
-5 -23 -18 0
-5 -23 -24 0
-5 -23 -22 0
-5 -22 -6 0
-5 -22 -12 0
-5 -22 -18 0
-5 -22 -24 0
-5 -22 -23 0
-6 -5 -12 0
-6 -5 -18 0
-6 -5 -24 0
-6 -5 -23 0
-6 -5 -22 0
-6 -12 -5 0
-6 -12 -18 0
-6 -12 -24 0
-6 -12 -23 0
-6 -12 -22 0
-6 -18 -5 0
-6 -18 -12 0
-6 -18 -24 0
-6 -18 -23 0
-6 -18 -22 0
-6 -24 -5 0
-6 -24 -12 0
-6 -24 -18 0
-6 -24 -23 0
-6 -24 -22 0
-6 -23 -5 0
-6 -23 -12 0
-6 -23 -18 0
-6 -23 -24 0
-6 -23 -22 0
-6 -22 -5 0
-6 -22 -12 0
-6 -22 -18 0
-6 -22 -24 0
-6 -22 -23 0
-12 -5 -6 0
-12 -5 -18 0
-12 -5 -24 0
-12 -5 -23 0
-12 -5 -22 0
-12 -6 -5 0
-12 -6 -18 0
-12 -6 -24 0
-12 -6 -23 0
-12 -6 -22 0
-12 -18 -5 0
-12 -18 -6 0
-12 -18 -24 0
-12 -18 -23 0
-12 -18 -22 0
-12 -24 -5 0
-12 -24 -6 0
-12 -24 -18 0
-12 -24 -23 0
-12 -24 -22 0
-12 -23 -5 0
-12 -23 -6 0
-12 -23 -18 0
-12 -23 -24 0
-12 -23 -22 0
-12 -22 -5 0
-12 -22 -6 0
-12 -22 -18 0
-12 -22 -24 0
-12 -22 -23 0
-18 -5 -6 0
-18 -5 -12 0
-18 -5 -24 0
-18 -5 -23 0
-18 -5 -22 0
-18 -6 -5 0
-18 -6 -12 0
-18 -6 -24 0
-18 -6 -23 0
-18 -6 -22 0
-18 -12 -5 0
-18 -12 -6 0
-18 -12 -24 0
-18 -12 -23 0
-18 -12 -22 0
-18 -24 -5 0
-18 -24 -6 0
-18 -24 -12 0
-18 -24 -23 0
-18 -24 -22 0
-18 -23 -5 0
-18 -23 -6 0
-18 -23 -12 0
-18 -23 -24 0
-18 -23 -22 0
-18 -22 -5 0
-18 -22 -6 0
-18 -22 -12 0
-18 -22 -24 0
-18 -22 -23 0
-24 -5 -6 0
-24 -5 -12 0
-24 -5 -18 0
-24 -5 -23 0
-24 -5 -22 0
-24 -6 -5 0
-24 -6 -12 0
-24 -6 -18 0
-24 -6 -23 0
-24 -6 -22 0
-24 -12 -5 0
-24 -12 -6 0
-24 -12 -18 0
-24 -12 -23 0
-24 -12 -22 0
-24 -18 -5 0
-24 -18 -6 0
-24 -18 -12 0
-24 -18 -23 0
-24 -18 -22 0
-24 -23 -5 0
-24 -23 -6 0
-24 -23 -12 0
-24 -23 -18 0
-24 -23 -22 0
-24 -22 -5 0
-24 -22 -6 0
-24 -22 -12 0
-24 -22 -18 0
-24 -22 -23 0
-23 -5 -6 0
-23 -5 -12 0
-23 -5 -18 0
-23 -5 -24 0
-23 -5 -22 0
-23 -6 -5 0
-23 -6 -12 0
-23 -6 -18 0
-23 -6 -24 0
-23 -6 -22 0
-23 -12 -5 0
-23 -12 -6 0
-23 -12 -18 0
-23 -12 -24 0
-23 -12 -22 0
-23 -18 -5 0
-23 -18 -6 0
-23 -18 -12 0
-23 -18 -24 0
-23 -18 -22 0
-23 -24 -5 0
-23 -24 -6 0
-23 -24 -12 0
-23 -24 -18 0
-23 -24 -22 0
-23 -22 -5 0
-23 -22 -6 0
-23 -22 -12 0
-23 -22 -18 0
-23 -22 -24 0
-22 -5 -6 0
-22 -5 -12 0
-22 -5 -18 0
-22 -5 -24 0
-22 -5 -23 0
-22 -6 -5 0
-22 -6 -12 0
-22 -6 -18 0
-22 -6 -24 0
-22 -6 -23 0
-22 -12 -5 0
-22 -12 -6 0
-22 -12 -18 0
-22 -12 -24 0
-22 -12 -23 0
-22 -18 -5 0
-22 -18 -6 0
-22 -18 -12 0
-22 -18 -24 0
-22 -18 -23 0
-22 -24 -5 0
-22 -24 -6 0
-22 -24 -12 0
-22 -24 -18 0
-22 -24 -23 0
-22 -23 -5 0
-22 -23 -6 0
-22 -23 -12 0
-22 -23 -18 0
-22 -23 -24 0
6 12 18 24 23 22 0
5 12 18 24 23 22 0
5 6 18 24 23 22 0
5 6 12 24 23 22 0
5 6 12 18 23 22 0
5 6 12 18 24 22 0
5 6 12 18 24 23 0
-20 -19 -25 0
-20 -19 -26 0
-20 -19 -27 0
-20 -25 -19 0
-20 -25 -26 0
-20 -25 -27 0
-20 -26 -19 0
-20 -26 -25 0
-20 -26 -27 0
-20 -27 -19 0
-20 -27 -25 0
-20 -27 -26 0
-19 -20 -25 0
-19 -20 -26 0
-19 -20 -27 0
-19 -25 -20 0
-19 -25 -26 0
-19 -25 -27 0
-19 -26 -20 0
-19 -26 -25 0
-19 -26 -27 0
-19 -27 -20 0
-19 -27 -25 0
-19 -27 -26 0
-25 -20 -19 0
-25 -20 -26 0
-25 -20 -27 0
-25 -19 -20 0
-25 -19 -26 0
-25 -19 -27 0
-25 -26 -20 0
-25 -26 -19 0
-25 -26 -27 0
-25 -27 -20 0
-25 -27 -19 0
-25 -27 -26 0
-26 -20 -19 0
-26 -20 -25 0
-26 -20 -27 0
-26 -19 -20 0
-26 -19 -25 0
-26 -19 -27 0
-26 -25 -20 0
-26 -25 -19 0
-26 -25 -27 0
-26 -27 -20 0
-26 -27 -19 0
-26 -27 -25 0
-27 -20 -19 0
-27 -20 -25 0
-27 -20 -26 0
-27 -19 -20 0
-27 -19 -25 0
-27 -19 -26 0
-27 -25 -20 0
-27 -25 -19 0
-27 -25 -26 0
-27 -26 -20 0
-27 -26 -19 0
-27 -26 -25 0
19 25 26 27 0
20 25 26 27 0
20 19 26 27 0
20 19 25 27 0
20 19 25 26 0
-31 -32 -33 0
-31 -32 -28 0
-31 -32 -34 0
-31 -33 -32 0
-31 -33 -28 0
-31 -33 -34 0
-31 -28 -32 0
-31 -28 -33 0
-31 -28 -34 0
-31 -34 -32 0
-31 -34 -33 0
-31 -34 -28 0
-32 -31 -33 0
-32 -31 -28 0
-32 -31 -34 0
-32 -33 -31 0
-32 -33 -28 0
-32 -33 -34 0
-32 -28 -31 0
-32 -28 -33 0
-32 -28 -34 0
-32 -34 -31 0
-32 -34 -33 0
-32 -34 -28 0
-33 -31 -32 0
-33 -31 -28 0
-33 -31 -34 0
-33 -32 -31 0
-33 -32 -28 0
-33 -32 -34 0
-33 -28 -31 0
-33 -28 -32 0
-33 -28 -34 0
-33 -34 -31 0
-33 -34 -32 0
-33 -34 -28 0
-28 -31 -32 0
-28 -31 -33 0
-28 -31 -34 0
-28 -32 -31 0
-28 -32 -33 0
-28 -32 -34 0
-28 -33 -31 0
-28 -33 -32 0
-28 -33 -34 0
-28 -34 -31 0
-28 -34 -32 0
-28 -34 -33 0
-34 -31 -32 0
-34 -31 -33 0
-34 -31 -28 0
-34 -32 -31 0
-34 -32 -33 0
-34 -32 -28 0
-34 -33 -31 0
-34 -33 -32 0
-34 -33 -28 0
-34 -28 -31 0
-34 -28 -32 0
-34 -28 -33 0
32 33 28 34 0
31 33 28 34 0
31 32 28 34 0
31 32 33 34 0
31 32 33 28 0
-35 -29 -30 0
-35 -29 -36 0
-35 -30 -29 0
-35 -30 -36 0
-35 -36 -29 0
-35 -36 -30 0
-29 -35 -30 0
-29 -35 -36 0
-29 -30 -35 0
-29 -30 -36 0
-29 -36 -35 0
-29 -36 -30 0
-30 -35 -29 0
-30 -35 -36 0
-30 -29 -35 0
-30 -29 -36 0
-30 -36 -35 0
-30 -36 -29 0
-36 -35 -29 0
-36 -35 -30 0
-36 -29 -35 0
-36 -29 -30 0
-36 -30 -35 0
-36 -30 -29 0
29 30 36 0
35 30 36 0
35 29 36 0
35 29 30 0
-1 -7 -2 0
-1 -2 -7 0
-1 7 2 0
-2 -8 -3 0
-2 -8 -1 0
-2 -3 -8 0
-2 -3 -1 0
-2 -1 -8 0
-2 -1 -3 0
-2 8 3 1 0
-3 -9 -4 0
-3 -9 -2 0
-3 -4 -9 0
-3 -4 -2 0
-3 -2 -9 0
-3 -2 -4 0
-3 9 4 2 0
-4 -10 -5 0
-4 -10 -3 0
-4 -5 -10 0
-4 -5 -3 0
-4 -3 -10 0
-4 -3 -5 0
-4 10 5 3 0
-5 -11 -6 0
-5 -11 -4 0
-5 -6 -11 0
-5 -6 -4 0
-5 -4 -11 0
-5 -4 -6 0
-5 11 6 4 0
-6 -12 -5 0
-6 -5 -12 0
-6 12 5 0
-7 -13 -1 0
-7 -13 -8 0
-7 -1 -13 0
-7 -1 -8 0
-7 -8 -13 0
-7 -8 -1 0
-7 13 1 8 0
-8 -14 -2 0
-8 -14 -9 0
-8 -14 -7 0
-8 -2 -14 0
-8 -2 -9 0
-8 -2 -7 0
-8 -9 -14 0
-8 -9 -2 0
-8 -9 -7 0
-8 -7 -14 0
-8 -7 -2 0
-8 -7 -9 0
-8 14 2 9 7 0
-9 -15 -3 0
-9 -15 -10 0
-9 -15 -8 0
-9 -3 -15 0
-9 -3 -10 0
-9 -3 -8 0
-9 -10 -15 0
-9 -10 -3 0
-9 -10 -8 0
-9 -8 -15 0
-9 -8 -3 0
-9 -8 -10 0
-9 15 3 10 8 0
-10 -16 -4 0
-10 -16 -11 0
-10 -16 -9 0
-10 -4 -16 0
-10 -4 -11 0
-10 -4 -9 0
-10 -11 -16 0
-10 -11 -4 0
-10 -11 -9 0
-10 -9 -16 0
-10 -9 -4 0
-10 -9 -11 0
-10 16 4 11 9 0
-11 -17 -5 0
-11 -17 -12 0
-11 -17 -10 0
-11 -5 -17 0
-11 -5 -12 0
-11 -5 -10 0
-11 -12 -17 0
-11 -12 -5 0
-11 -12 -10 0
-11 -10 -17 0
-11 -10 -5 0
-11 -10 -12 0
-11 17 5 12 10 0
-12 -18 -6 0
-12 -18 -11 0
-12 -6 -18 0
-12 -6 -11 0
-12 -11 -18 0
-12 -11 -6 0
-12 18 6 11 0
-13 -19 -7 0
-13 -19 -14 0
-13 -7 -19 0
-13 -7 -14 0
-13 -14 -19 0
-13 -14 -7 0
-13 19 7 14 0
-14 -20 -8 0
-14 -20 -15 0
-14 -20 -13 0
-14 -8 -20 0
-14 -8 -15 0
-14 -8 -13 0
-14 -15 -20 0
-14 -15 -8 0
-14 -15 -13 0
-14 -13 -20 0
-14 -13 -8 0
-14 -13 -15 0
-14 20 8 15 13 0
-15 -21 -9 0
-15 -21 -16 0
-15 -21 -14 0
-15 -9 -21 0
-15 -9 -16 0
-15 -9 -14 0
-15 -16 -21 0
-15 -16 -9 0
-15 -16 -14 0
-15 -14 -21 0
-15 -14 -9 0
-15 -14 -16 0
-15 21 9 16 14 0
-16 -22 -10 0
-16 -22 -17 0
-16 -22 -15 0
-16 -10 -22 0
-16 -10 -17 0
-16 -10 -15 0
-16 -17 -22 0
-16 -17 -10 0
-16 -17 -15 0
-16 -15 -22 0
-16 -15 -10 0
-16 -15 -17 0
-16 22 10 17 15 0
-17 -23 -11 0
-17 -23 -18 0
-17 -23 -16 0
-17 -11 -23 0
-17 -11 -18 0
-17 -11 -16 0
-17 -18 -23 0
-17 -18 -11 0
-17 -18 -16 0
-17 -16 -23 0
-17 -16 -11 0
-17 -16 -18 0
-17 23 11 18 16 0
-18 -24 -12 0
-18 -24 -17 0
-18 -12 -24 0
-18 -12 -17 0
-18 -17 -24 0
-18 -17 -12 0
-18 24 12 17 0
-19 -25 -13 0
-19 -25 -20 0
-19 -13 -25 0
-19 -13 -20 0
-19 -20 -25 0
-19 -20 -13 0
-19 25 13 20 0
-20 -26 -14 0
-20 -26 -21 0
-20 -26 -19 0
-20 -14 -26 0
-20 -14 -21 0
-20 -14 -19 0
-20 -21 -26 0
-20 -21 -14 0
-20 -21 -19 0
-20 -19 -26 0
-20 -19 -14 0
-20 -19 -21 0
-20 26 14 21 19 0
-21 -27 -15 0
-21 -27 -22 0
-21 -27 -20 0
-21 -15 -27 0
-21 -15 -22 0
-21 -15 -20 0
-21 -22 -27 0
-21 -22 -15 0
-21 -22 -20 0
-21 -20 -27 0
-21 -20 -15 0
-21 -20 -22 0
-21 27 15 22 20 0
-22 -28 -16 0
-22 -28 -23 0
-22 -28 -21 0
-22 -16 -28 0
-22 -16 -23 0
-22 -16 -21 0
-22 -23 -28 0
-22 -23 -16 0
-22 -23 -21 0
-22 -21 -28 0
-22 -21 -16 0
-22 -21 -23 0
-22 28 16 23 21 0
-23 -29 -17 0
-23 -29 -24 0
-23 -29 -22 0
-23 -17 -29 0
-23 -17 -24 0
-23 -17 -22 0
-23 -24 -29 0
-23 -24 -17 0
-23 -24 -22 0
-23 -22 -29 0
-23 -22 -17 0
-23 -22 -24 0
-23 29 17 24 22 0
-24 -30 -18 0
-24 -30 -23 0
-24 -18 -30 0
-24 -18 -23 0
-24 -23 -30 0
-24 -23 -18 0
-24 30 18 23 0
-25 -31 -19 0
-25 -31 -26 0
-25 -19 -31 0
-25 -19 -26 0
-25 -26 -31 0
-25 -26 -19 0
-25 31 19 26 0
-26 -32 -20 0
-26 -32 -27 0
-26 -32 -25 0
-26 -20 -32 0
-26 -20 -27 0
-26 -20 -25 0
-26 -27 -32 0
-26 -27 -20 0
-26 -27 -25 0
-26 -25 -32 0
-26 -25 -20 0
-26 -25 -27 0
-26 32 20 27 25 0
-27 -33 -21 0
-27 -33 -28 0
-27 -33 -26 0
-27 -21 -33 0
-27 -21 -28 0
-27 -21 -26 0
-27 -28 -33 0
-27 -28 -21 0
-27 -28 -26 0
-27 -26 -33 0
-27 -26 -21 0
-27 -26 -28 0
-27 33 21 28 26 0
-28 -34 -22 0
-28 -34 -29 0
-28 -34 -27 0
-28 -22 -34 0
-28 -22 -29 0
-28 -22 -27 0
-28 -29 -34 0
-28 -29 -22 0
-28 -29 -27 0
-28 -27 -34 0
-28 -27 -22 0
-28 -27 -29 0
-28 34 22 29 27 0
-29 -35 -23 0
-29 -35 -30 0
-29 -35 -28 0
-29 -23 -35 0
-29 -23 -30 0
-29 -23 -28 0
-29 -30 -35 0
-29 -30 -23 0
-29 -30 -28 0
-29 -28 -35 0
-29 -28 -23 0
-29 -28 -30 0
-29 35 23 30 28 0
-30 -36 -24 0
-30 -36 -29 0
-30 -24 -36 0
-30 -24 -29 0
-30 -29 -36 0
-30 -29 -24 0
-30 36 24 29 0
-31 -25 -32 0
-31 -32 -25 0
-31 25 32 0
-32 -26 -33 0
-32 -26 -31 0
-32 -33 -26 0
-32 -33 -31 0
-32 -31 -26 0
-32 -31 -33 0
-32 26 33 31 0
-33 -27 -34 0
-33 -27 -32 0
-33 -34 -27 0
-33 -34 -32 0
-33 -32 -27 0
-33 -32 -34 0
-33 27 34 32 0
-34 -28 -35 0
-34 -28 -33 0
-34 -35 -28 0
-34 -35 -33 0
-34 -33 -28 0
-34 -33 -35 0
-34 28 35 33 0
-35 -29 -36 0
-35 -29 -34 0
-35 -36 -29 0
-35 -36 -34 0
-35 -34 -29 0
-35 -34 -36 0
-35 29 36 34 0
-36 -30 -35 0
-36 -35 -30 0
-36 30 35 0
